47881 46390
49591 61440
4386 57412
19770 29021
7438 7199
5616 56926
65061 2214
24801 32718
31072 32099
40258 6736
60826 10151
29014 16702
21612 60388
61848 13516
50891 17081
51274 45742
51792 24097
24641 20900
44861 45966
62272 25333
64288 18143
33894 20239
32595 7783
45448 7728
19727 33848
33228 29397
32877 47236
45916 55707
25667 30634
37863 15297
9466 59501
52217 38801
58567 21720
63856 3441
57144 23155
32953 62529
42163 4412
51514 17026
22351 41028
51027 6742
16172 3636
7277 39390
55911 33665
48393 38976
60037 18532
7920 2551
6200 50431
